c description: Random 3-CNF over 15 variables and 95 clauses
c generator: CNFgen (0.9.0)
c copyright: (C) 2012-2020 Massimo Lauria <massimo.lauria@uniroma1.it>
c url: https://massimolauria.net/cnfgen
c
p cnf 15 95
-1 6 -11 0
1 5 6 0
-6 -8 15 0
2 -8 15 0
2 -3 -14 0
4 5 -15 0
3 -4 12 0
-2 4 -11 0
-2 -5 -11 0
5 9 -15 0
3 10 12 0
-1 7 15 0
-7 -12 15 0
-5 7 -14 0
4 6 10 0
-7 -8 -10 0
-4 -10 -14 0
3 5 14 0
-3 -6 10 0
4 -8 12 0
-5 -11 13 0
3 -13 15 0
-3 -6 7 0
-3 -8 -15 0
8 -9 -11 0
6 9 14 0
1 -9 -14 0
-3 4 -10 0
10 11 14 0
-10 12 13 0
-3 7 9 0
-2 9 13 0
-1 3 11 0
-2 5 -8 0
5 8 10 0
1 3 -12 0
-8 11 -13 0
-3 10 14 0
-6 -10 -15 0
-4 10 15 0
-3 5 -15 0
-6 9 -12 0
-9 -13 14 0
-10 -12 13 0
1 -12 13 0
5 -8 14 0
3 6 -7 0
2 -6 14 0
-5 6 -8 0
9 -11 13 0
2 10 14 0
-6 12 13 0
-9 -12 -13 0
1 4 9 0
8 -13 -14 0
-1 11 12 0
-1 3 -8 0
-6 -13 -15 0
-3 9 -12 0
5 -7 -9 0
3 -4 -7 0
4 8 9 0
4 -6 -11 0
-4 -5 12 0
-3 -4 -5 0
-5 13 14 0
4 -9 -15 0
1 6 13 0
4 6 -11 0
4 -5 13 0
-1 2 -12 0
-11 -14 15 0
1 -7 8 0
2 -10 -13 0
6 -8 14 0
-1 3 -9 0
13 -14 -15 0
5 -7 9 0
-6 -8 -9 0
-2 5 12 0
1 2 -3 0
-7 8 -10 0
-3 13 -15 0
2 4 -15 0
7 -8 -12 0
4 -9 -14 0
2 -7 -9 0
-2 7 10 0
-1 -7 9 0
-5 -6 -11 0
1 3 11 0
-1 -10 12 0
-3 -7 -9 0
9 -10 -14 0
-1 -12 -15 0